N = 6; %nombre d'années dans le futur où on a besoin du plus gros cashdown
LIQUIDE_NOW = 4500;
INFLATION = 0.02;
SALAIRES_FUTURS_IMPOT = [
60000,
102000,
87000,
88700,
90500,
92300
];
DEPENSES = [
36000,
36700,
37500,
38200,
39000,
39750
];
N_PALIERS = 10;
PALIERS_IMPOTS = [
0,
15705,
18056,
51780,
55867,
103545,
111733,
126000,
173205,
246752
];
PALIERS_IMPOTS_RATES = [
0,
0.1253,
0.2653,
0.3153,
0.3612,
0.4112,
0.4571,
0.4746,
0.4997,
0.5331
];
EPS = 0.01;